34 38 11 46 -48 24 26 -48 0
-32 33 34 4 6 40 -24 46 -48 -37 -48 0
34 38 11 46 -48 26 -48 0
-48 0
-39 27 4 -37 48 0
40 -24 -38 4 48 0
11 -3 46 -18 48 0
34 -24 11 46 48 -38 48 0
40 24 -38 48 0
-8 -15 48 11 48 0
34 46 15 -40 24 48 0
34 11 46 48 -38 48 0
34 38 46 -40 24 48 0
18 34 46 15 48 0
34 -29 38 40 46 15 48 24 48 0
34 38 11 46 48 24 48 0
34 4 -27 38 -24 11 46 -40 48 0
48 0
0
